TCS_Benchmarks/redos_fix/snort1_output_distinct_2566_2565_153_0.txt
[^\n\r]*
([^\n\r]*)(\.[eE][xX][eE])([^\n\r]*)
[^\n\r]*